70
2 1 3
3 1 2
4 0 2
4 2 3
4 3 1
6 0 3
6 1 2
6 3 2
6 4 1
7 0 2
7 1 3
7 2 3
8 4 1
8 5 1
9 0 2
9 2 2
9 4 1
9 5 1
9 6 2
9 7 3
10 4 1
10 6 2
10 8 2
11 2 1
11 3 2
11 4 2
11 5 1
11 6 2
11 8 1
11 9 3
11 10 3
12 0 3
12 1 1
12 2 3
12 3 1
12 6 1
12 7 1
12 9 1
13 2 2
13 4 1
13 6 1
13 7 3
13 9 3
13 10 3
14 1 2
14 3 1
14 5 3
14 9 1
14 10 2
14 13 2
15 2 2
15 3 3
15 5 2
15 9 1
15 11 1
15 13 1
16 4 1
16 5 1
16 7 2
16 10 1
16 12 1
17 0 1
17 1 2
17 4 2
17 7 1
17 8 1
17 10 1
17 11 1
17 13 3
17 15 3
17 16 1
18 3 3
18 7 3
18 11 2
18 13 1
18 14 2
18 16 1
18 17 1
19 1 1
19 3 1
19 4 3
19 5 1
19 6 2
19 7 2
19 8 2
19 9 2
19 10 2
19 11 3
19 12 3
19 13 3
20 0 2
20 1 1
20 5 1
20 8 1
20 10 1
20 12 1
20 13 1
20 15 1
20 17 3
20 18 1
21 0 1
21 2 2
21 3 2
21 4 3
21 7 1
21 8 3
21 11 1
21 12 3
21 14 3
21 16 1
21 17 1
21 20 2
22 1 2
22 2 1
22 3 3
22 8 2
22 9 1
22 12 2
22 19 3
22 20 3
22 21 2
23 1 2
23 2 3
23 3 2
23 4 3
23 6 3
23 12 3
23 15 3
23 19 3
23 20 1
23 22 2
24 4 3
24 9 1
24 11 3
24 15 3
24 16 2
24 17 2
24 18 1
24 21 2
24 23 1
25 2 1
25 3 3
25 6 1
25 7 2
25 8 3
25 9 3
25 10 2
25 11 2
25 15 2
25 16 3
25 22 1
25 23 3
26 3 2
26 4 1
26 8 2
26 9 3
26 13 2
26 14 1
26 15 1
26 22 2
26 24 1
26 25 2
27 1 3
27 3 1
27 4 3
27 7 3
27 8 2
27 9 2
27 11 1
27 13 2
27 14 3
27 15 2
27 19 2
27 21 1
27 22 2
27 23 2
27 24 1
27 25 2
27 26 2
28 3 2
28 4 2
28 7 1
28 8 2
28 10 2
28 15 2
28 17 2
28 19 1
28 21 2
28 23 2
28 26 1
28 27 3
29 1 3
29 3 1
29 4 3
29 5 2
29 7 1
29 8 2
29 11 3
29 14 1
29 15 3
29 16 2
29 22 2
29 24 3
29 27 3
29 28 3
30 0 3
30 2 2
30 4 2
30 9 2
30 10 3
30 17 2
30 18 1
30 20 2
30 22 3
30 23 2
30 25 3
30 26 1
30 28 1
30 29 3
31 1 1
31 3 2
31 8 3
31 10 3
31 12 1
31 13 3
31 16 3
31 17 1
31 19 1
31 23 2
31 26 3
31 27 2
31 28 3
31 29 3
31 30 3
32 0 3
32 3 2
32 4 1
32 5 2
32 6 3
32 9 1
32 11 3
32 13 1
32 14 2
32 17 1
32 18 1
32 19 3
32 25 1
32 26 3
32 27 2
32 29 3
32 30 3
33 0 2
33 1 3
33 4 2
33 8 2
33 11 3
33 12 1
33 15 1
33 20 1
33 21 2
33 23 2
33 26 3
33 27 1
33 28 3
33 31 3
33 32 3
34 3 3
34 4 1
34 8 1
34 14 1
34 18 3
34 19 1
34 20 2
34 21 3
34 22 1
34 25 3
34 28 2
34 29 3
34 30 3
35 0 1
35 2 1
35 4 2
35 5 2
35 6 2
35 8 2
35 9 1
35 12 3
35 13 3
35 14 2
35 15 2
35 19 1
35 21 3
35 22 1
35 24 3
35 29 3
35 31 1
36 4 1
36 8 1
36 9 3
36 11 2
36 12 3
36 14 3
36 15 2
36 16 3
36 17 3
36 18 3
36 21 3
36 23 2
36 24 2
36 25 1
36 26 3
36 27 1
36 31 3
36 32 2
37 2 3
37 4 2
37 6 3
37 8 3
37 10 3
37 11 3
37 12 2
37 15 3
37 16 2
37 17 1
37 18 3
37 22 3
37 24 1
37 28 1
37 29 3
37 30 1
37 32 2
37 33 2
37 34 3
37 36 3
38 1 1
38 2 3
38 3 2
38 5 1
38 6 3
38 7 2
38 9 1
38 10 2
38 11 3
38 13 1
38 14 3
38 18 3
38 23 1
38 28 1
38 31 1
38 33 2
38 34 3
38 35 1
38 36 2
38 37 1
39 0 2
39 1 1
39 2 3
39 4 1
39 6 3
39 7 3
39 8 1
39 10 3
39 11 1
39 13 1
39 14 3
39 15 3
39 16 3
39 18 3
39 19 1
39 21 2
39 22 2
39 24 3
39 28 3
39 30 1
39 32 3
39 34 2
39 35 2
39 37 2
39 38 1
40 2 2
40 3 2
40 9 3
40 11 3
40 12 2
40 13 2
40 14 1
40 15 2
40 16 3
40 17 2
40 21 1
40 22 3
40 23 1
40 24 1
40 26 2
40 27 3
40 28 3
40 31 1
40 32 1
40 33 1
40 36 2
41 0 1
41 2 3
41 3 2
41 4 3
41 5 2
41 6 1
41 16 1
41 17 3
41 20 2
41 22 2
41 24 3
41 26 1
41 28 3
41 30 1
41 31 3
41 32 1
41 36 3
41 37 1
41 38 2
41 40 1
42 1 1
42 2 1
42 6 3
42 7 2
42 10 2
42 15 1
42 16 2
42 17 1
42 18 3
42 22 3
42 24 1
42 27 1
42 30 3
42 31 3
42 39 3
42 40 2
42 41 1
43 1 3
43 2 3
43 3 1
43 4 1
43 7 3
43 9 1
43 10 3
43 11 3
43 12 3
43 17 3
43 19 2
43 20 3
43 21 2
43 23 1
43 27 3
43 29 3
43 30 2
43 32 3
43 33 3
43 37 2
43 38 1
43 40 3
43 41 2
44 1 1
44 3 2
44 4 2
44 5 2
44 6 3
44 8 3
44 9 3
44 12 3
44 13 2
44 16 2
44 18 2
44 19 2
44 20 3
44 21 3
44 22 3
44 27 3
44 28 3
44 30 1
44 31 1
44 32 2
44 33 2
44 34 2
44 38 1
44 41 2
45 0 3
45 2 2
45 3 1
45 4 3
45 8 2
45 9 2
45 10 3
45 17 2
45 18 3
45 19 1
45 23 1
45 25 1
45 27 1
45 28 1
45 30 1
45 31 3
45 33 1
45 34 2
45 36 3
45 37 2
45 38 1
45 39 1
45 40 3
45 42 3
45 43 2
46 0 3
46 4 3
46 5 3
46 7 2
46 8 1
46 9 3
46 10 3
46 14 1
46 20 3
46 22 3
46 23 3
46 24 2
46 26 1
46 28 1
46 29 2
46 30 2
46 31 1
46 33 3
46 34 2
46 36 3
46 39 1
46 41 2
46 43 1
47 0 2
47 1 2
47 5 2
47 9 3
47 10 1
47 11 2
47 16 2
47 18 3
47 20 3
47 21 3
47 22 1
47 24 1
47 28 1
47 32 3
47 33 3
47 35 2
47 36 3
47 38 1
47 41 2
47 42 1
47 43 1
47 44 2
48 0 1
48 1 1
48 3 3
48 4 2
48 5 1
48 9 2
48 10 1
48 14 2
48 15 1
48 16 2
48 17 1
48 18 3
48 19 1
48 20 1
48 22 3
48 23 1
48 26 3
48 27 2
48 29 3
48 31 3
48 33 1
48 38 3
48 39 2
48 42 1
48 43 2
48 45 2
48 46 2
48 47 1
49 0 3
49 2 2
49 3 3
49 4 2
49 7 2
49 8 3
49 9 1
49 10 1
49 11 3
49 13 1
49 16 1
49 20 2
49 21 3
49 24 2
49 26 1
49 30 3
49 31 3
49 36 2
49 38 3
49 42 2
49 43 1
49 47 1
50 0 3
50 7 2
50 8 1
50 9 1
50 10 2
50 13 3
50 14 1
50 15 3
50 16 2
50 17 3
50 18 1
50 19 1
50 20 1
50 21 1
50 22 3
50 23 3
50 24 1
50 25 3
50 27 1
50 29 2
50 32 3
50 35 3
50 36 1
50 37 1
50 39 2
50 41 3
50 44 3
50 45 3
50 46 2
50 48 1
51 1 1
51 3 3
51 5 1
51 9 1
51 10 2
51 12 1
51 13 2
51 14 3
51 17 1
51 18 2
51 21 1
51 22 1
51 24 3
51 28 2
51 29 3
51 32 3
51 36 3
51 41 3
51 42 1
51 44 1
51 46 2
51 48 2
51 50 3
52 2 3
52 3 1
52 6 1
52 10 2
52 12 3
52 13 3
52 20 2
52 21 1
52 23 1
52 24 2
52 26 3
52 27 2
52 28 3
52 30 3
52 33 1
52 35 2
52 38 2
52 40 2
52 41 2
52 43 3
52 44 2
52 46 1
52 49 1
52 50 2
53 0 1
53 1 1
53 2 3
53 3 1
53 4 3
53 12 3
53 13 1
53 15 2
53 16 2
53 20 3
53 24 3
53 25 2
53 27 2
53 28 3
53 30 3
53 31 1
53 32 1
53 33 3
53 34 3
53 35 3
53 36 2
53 38 3
53 39 1
53 41 2
53 42 1
53 43 1
53 48 2
53 50 1
54 0 2
54 1 2
54 2 3
54 4 2
54 7 2
54 10 1
54 11 3
54 12 1
54 13 3
54 14 3
54 16 2
54 19 3
54 20 1
54 24 2
54 25 2
54 26 1
54 28 1
54 32 2
54 34 2
54 35 3
54 36 2
54 37 2
54 38 1
54 39 2
54 41 3
54 42 1
54 43 3
54 44 1
54 52 2
55 1 3
55 2 1
55 6 2
55 9 1
55 15 1
55 16 1
55 17 1
55 18 1
55 21 2
55 22 3
55 23 3
55 25 1
55 26 1
55 27 3
55 28 1
55 30 3
55 36 2
55 37 3
55 39 2
55 41 1
55 42 1
55 44 1
55 47 3
55 48 1
55 50 2
55 53 2
56 2 1
56 3 1
56 5 3
56 6 1
56 14 2
56 15 2
56 17 3
56 19 1
56 20 2
56 21 3
56 26 3
56 31 3
56 33 2
56 36 2
56 38 1
56 39 1
56 40 1
56 41 1
56 43 3
56 44 2
56 45 2
56 46 3
56 49 2
56 50 2
56 54 2
56 55 2
57 1 1
57 2 1
57 3 2
57 6 1
57 7 1
57 9 3
57 10 2
57 15 3
57 19 3
57 20 1
57 21 1
57 23 3
57 24 2
57 28 1
57 30 2
57 34 3
57 41 1
57 42 2
57 44 3
57 46 3
57 47 2
57 48 3
57 49 1
57 51 1
57 52 2
57 53 1
57 54 1
58 1 2
58 2 1
58 5 1
58 6 3
58 8 1
58 9 1
58 10 1
58 11 2
58 13 1
58 17 2
58 19 1
58 24 2
58 25 2
58 28 3
58 29 3
58 30 2
58 33 2
58 35 3
58 36 1
58 38 3
58 39 1
58 40 1
58 41 1
58 42 3
58 48 3
58 49 1
58 51 2
58 52 1
58 53 3
58 57 3
59 2 1
59 3 2
59 4 1
59 5 3
59 6 3
59 10 2
59 11 2
59 12 1
59 14 1
59 17 3
59 18 3
59 19 1
59 20 1
59 21 2
59 22 3
59 23 2
59 25 2
59 27 3
59 34 2
59 35 1
59 36 1
59 38 3
59 39 3
59 45 1
59 46 3
59 47 2
59 50 3
59 51 2
59 53 2
59 55 3
59 56 2
60 2 3
60 4 3
60 5 3
60 7 1
60 8 1
60 11 1
60 15 2
60 18 2
60 19 1
60 21 1
60 24 1
60 25 3
60 27 2
60 31 3
60 35 1
60 36 1
60 38 1
60 42 1
60 43 1
60 45 2
60 46 2
60 47 3
60 48 3
60 51 3
60 53 1
60 57 3
60 58 3
60 59 1
61 0 2
61 2 1
61 4 1
61 5 3
61 6 3
61 7 1
61 8 1
61 11 1
61 13 2
61 16 3
61 19 1
61 24 1
61 26 2
61 27 3
61 28 3
61 29 1
61 31 1
61 33 3
61 34 2
61 35 3
61 36 2
61 40 2
61 41 1
61 44 1
61 51 3
61 52 3
61 54 2
61 57 1
61 59 2
62 2 3
62 3 1
62 5 2
62 6 3
62 8 1
62 9 1
62 10 3
62 11 2
62 12 2
62 14 3
62 15 1
62 16 1
62 17 3
62 18 3
62 19 1
62 21 2
62 26 3
62 27 2
62 29 3
62 33 3
62 36 3
62 37 3
62 38 1
62 39 3
62 43 2
62 45 2
62 47 2
62 48 3
62 49 2
62 52 3
62 55 3
62 58 3
62 60 1
63 0 2
63 3 1
63 4 2
63 10 3
63 11 1
63 12 2
63 13 2
63 16 2
63 18 1
63 20 1
63 22 2
63 23 1
63 24 2
63 25 2
63 26 1
63 27 3
63 28 2
63 29 2
63 31 1
63 33 2
63 34 2
63 35 1
63 37 1
63 38 1
63 39 1
63 40 1
63 41 3
63 46 1
63 47 2
63 49 1
63 50 3
63 52 1
63 53 1
63 55 2
63 58 2
63 59 3
63 62 3
64 0 2
64 1 2
64 5 1
64 8 2
64 10 3
64 13 3
64 14 3
64 16 3
64 18 1
64 21 1
64 22 1
64 23 1
64 24 3
64 26 1
64 30 3
64 32 1
64 34 2
64 35 1
64 37 1
64 38 2
64 39 1
64 42 1
64 45 2
64 46 2
64 48 1
64 51 3
64 54 2
64 55 2
64 56 3
64 58 2
64 59 1
64 61 1
64 62 2
64 63 3
65 0 2
65 3 3
65 4 3
65 5 1
65 7 1
65 10 2
65 11 3
65 12 3
65 13 2
65 15 1
65 18 2
65 19 1
65 20 3
65 21 2
65 27 3
65 28 3
65 30 2
65 33 3
65 34 2
65 38 2
65 39 3
65 40 2
65 44 2
65 45 3
65 47 3
65 48 2
65 49 1
65 50 1
65 51 1
65 52 1
65 55 3
65 56 3
65 57 2
65 60 1
65 62 3
65 63 2
66 0 2
66 1 3
66 2 1
66 3 1
66 4 3
66 5 2
66 6 2
66 8 3
66 9 2
66 14 3
66 15 3
66 20 1
66 21 2
66 22 1
66 23 1
66 24 3
66 26 2
66 27 3
66 28 1
66 29 3
66 30 3
66 31 3
66 32 3
66 33 1
66 34 2
66 35 2
66 36 1
66 38 2
66 39 1
66 40 2
66 41 3
66 42 3
66 47 3
66 48 2
66 51 1
66 52 2
66 54 3
66 55 2
66 56 2
66 57 1
66 58 3
66 59 2
66 62 2
66 63 3
67 1 1
67 2 1
67 3 3
67 10 1
67 12 2
67 13 1
67 16 3
67 17 2
67 19 3
67 23 3
67 31 1
67 36 1
67 40 1
67 41 1
67 42 3
67 43 1
67 44 3
67 46 2
67 49 1
67 51 3
67 52 1
67 53 1
67 55 2
67 57 2
67 58 2
67 60 2
67 62 1
67 65 2
67 66 2
68 0 3
68 1 1
68 2 3
68 3 1
68 6 2
68 7 2
68 12 3
68 13 3
68 14 3
68 25 1
68 26 1
68 28 2
68 30 3
68 31 2
68 32 3
68 33 3
68 38 1
68 39 3
68 40 3
68 45 1
68 47 3
68 48 2
68 49 1
68 50 1
68 51 2
68 54 2
68 55 2
68 56 2
68 57 1
68 58 3
68 59 3
68 61 3
68 62 3
68 63 1
68 65 3
68 66 2
69 0 2
69 1 1
69 2 1
69 4 1
69 5 1
69 6 2
69 7 2
69 11 1
69 13 2
69 14 2
69 15 1
69 17 1
69 19 2
69 22 3
69 23 2
69 29 2
69 33 3
69 36 3
69 38 2
69 43 3
69 44 3
69 47 3
69 50 2
69 52 2
69 53 1
69 54 2
69 58 2
69 59 2
69 61 3
69 65 3
69 66 3
69 68 1
